% Auto-generated by scripts/generate_dzn.py
% problem_type   = regex
% instance       = regex_97
% source_json    = instances_json/2_high_blowup/regex_97.json
% blowup         = 27.8
% representation = NFA

mode = 1;

var_count = 30;
n_constraints = 2;
Q = 17;
S = 3;
q0 = [1, 1];
F = [{13}, {17}];
weights = [7, 4, 2, 10, 6, 6, 2, 10, 5, 7, 6, 3, 2, 9, 9, 3, 5, 4, 1, 4, 7, 5, 2, 10, 8, 5, 6, 3, 1, 4];
d_dfa = array3d(1..2, 1..17, 1..3, [
  % k = 1
    0, 0, 0,
    0, 0, 0,
    0, 0, 0,
    0, 0, 0,
    0, 0, 0,
    0, 0, 0,
    0, 0, 0,
    0, 0, 0,
    0, 0, 0,
    0, 0, 0,
    0, 0, 0,
    0, 0, 0,
    0, 0, 0,
    0, 0, 0,
    0, 0, 0,
    0, 0, 0,
    0, 0, 0,

  % k = 2
    0, 0, 0,
    0, 0, 0,
    0, 0, 0,
    0, 0, 0,
    0, 0, 0,
    0, 0, 0,
    0, 0, 0,
    0, 0, 0,
    0, 0, 0,
    0, 0, 0,
    0, 0, 0,
    0, 0, 0,
    0, 0, 0,
    0, 0, 0,
    0, 0, 0,
    0, 0, 0,
    0, 0, 0
]);
d_nfa = array3d(1..2, 1..17, 1..3, [
  % k = 1
    {1, 2}, {1}, {1},
    {3}, {}, {},
    {4}, {4}, {4},
    {5}, {5}, {5},
    {6}, {6}, {6},
    {7}, {7}, {7},
    {8}, {8}, {8},
    {9}, {9}, {9},
    {10}, {10}, {10},
    {11}, {11}, {11},
    {12}, {12}, {12},
    {13}, {13}, {13},
    {}, {}, {},
    {}, {}, {},
    {}, {}, {},
    {}, {}, {},
    {}, {}, {},

  % k = 2
    {1}, {1}, {2},
    {2}, {2}, {3},
    {3}, {3}, {4},
    {4}, {4}, {5},
    {5}, {5}, {6},
    {6}, {6}, {7},
    {7}, {7}, {8},
    {8}, {8}, {9},
    {9}, {9}, {10},
    {10}, {10}, {11},
    {11}, {11}, {12},
    {12}, {12}, {13},
    {13}, {13}, {14},
    {14}, {14}, {15},
    {15}, {15}, {16},
    {16}, {16}, {17},
    {17}, {17}, {}
]);
